*SENSE:Minimize
NAME          MODEL
ROWS
 N  OBJ
 E  C0000000
 E  C0000001
 E  C0000002
 E  C0000003
 E  C0000004
 E  C0000005
 L  C0000006
 L  C0000007
 L  C0000008
 L  C0000009
 L  C0000010
 L  C0000011
COLUMNS
    MARK      'MARKER'                 'INTORG'
    X0000000  C0000000   1.000000000000e+00
    X0000000  C0000003   1.000000000000e+00
    X0000000  C0000008  -1.000000000000e+00
    X0000000  OBJ        7.071067811865e-01
    MARK      'MARKER'                 'INTEND'
    MARK      'MARKER'                 'INTORG'
    X0000001  C0000000   1.000000000000e+00
    X0000001  C0000005   1.000000000000e+00
    X0000001  C0000009  -1.000000000000e+00
    X0000001  OBJ        7.071067811865e-01
    MARK      'MARKER'                 'INTEND'
    MARK      'MARKER'                 'INTORG'
    X0000002  C0000001   1.000000000000e+00
    X0000002  C0000002   1.000000000000e+00
    X0000002  C0000010  -1.000000000000e+00
    X0000002  OBJ        7.071067811865e-01
    MARK      'MARKER'                 'INTEND'
    MARK      'MARKER'                 'INTORG'
    X0000003  C0000002   1.000000000000e+00
    X0000003  C0000005   1.000000000000e+00
    X0000003  C0000006   2.000000000000e+00
    X0000003  OBJ        1.000000000000e+00
    MARK      'MARKER'                 'INTEND'
    MARK      'MARKER'                 'INTORG'
    X0000004  C0000001   1.000000000000e+00
    X0000004  C0000004   1.000000000000e+00
    X0000004  C0000011  -1.000000000000e+00
    X0000004  OBJ        7.071067811865e-01
    MARK      'MARKER'                 'INTEND'
    MARK      'MARKER'                 'INTORG'
    X0000005  C0000003   1.000000000000e+00
    X0000005  C0000004   1.000000000000e+00
    X0000005  C0000007   2.000000000000e+00
    X0000005  OBJ        1.000000000000e+00
    MARK      'MARKER'                 'INTEND'
    X0000006  C0000006   1.000000000000e+00
    X0000006  C0000007  -1.000000000000e+00
    X0000006  C0000008  -1.000000000000e+00
    X0000006  C0000010   1.000000000000e+00
    X0000007  C0000006  -1.000000000000e+00
    X0000007  C0000007   1.000000000000e+00
    X0000007  C0000009  -1.000000000000e+00
    X0000007  C0000011   1.000000000000e+00
RHS
    RHS       C0000000   1.000000000000e+00
    RHS       C0000001   1.000000000000e+00
    RHS       C0000002   1.000000000000e+00
    RHS       C0000003   1.000000000000e+00
    RHS       C0000004   1.000000000000e+00
    RHS       C0000005   1.000000000000e+00
    RHS       C0000006   1.000000000000e+00
    RHS       C0000007   1.000000000000e+00
    RHS       C0000008  -2.000000000000e+00
    RHS       C0000009  -2.000000000000e+00
    RHS       C0000010   1.000000000000e+00
    RHS       C0000011   1.000000000000e+00
BOUNDS
 BV BND       X0000000
 BV BND       X0000001
 BV BND       X0000002
 BV BND       X0000003
 BV BND       X0000004
 BV BND       X0000005
ENDATA
